JulietBench/Juliet_Based_Patch_Bench/FFmpeg/CWE-189-Numeric-Errors/CVE_2011_3362_91d5da9321c52e8197fb14046ebb335f3e6ff4a0/Resultdecode_residual_blockNEQ.smt2
; benchmark generated from python API
(set-info :status unknown)
(declare-fun R () (_ BitVec 32))
(declare-fun rdi () (_ BitVec 64))
(assert
 (let (($x92 (= (_ bv1 32) R)))
 (let ((?x6 ((_ extract 31 0) rdi)))
 (let (($x60 (bvule ?x6 (_ bv58 32))))
 (let (($x95 (and $x60 $x92)))
 (let ((?x62 ((_ extract 0 0) rdi)))
 (let ((?x69 (concat (_ bv0 31) ?x62)))
 (let ((?x58 (bvnot ?x62)))
 (let ((?x71 (bvmul (_ bv4294967295 32) ?x69)))
 (let ((?x67 ((_ extract 31 1) ?x71)))
 (let ((?x75 (concat ?x67 ?x58)))
 (let ((?x78 (bvadd ?x75 ?x69)))
 (let (($x87 (= R ?x78)))
 (let (($x50 (bvugt ?x6 (_ bv58 32))))
 (let (($x97 (and $x50 $x87)))
 (let (($x83 (or $x97 $x95)))
 (let (($x99 (not $x83)))
 (let (($x11 (bvsge (_ bv58 32) ?x6)))
 (let (($x88 (and $x11 $x92)))
 (let (($x41 (bvslt (_ bv58 32) ?x6)))
 (let (($x96 (and $x41 $x87)))
 (let (($x91 (or $x96 $x88)))
 (let (($x98 (not $x91)))
 (let (($x100 (and $x98 $x99)))
 (let (($x86 (and $x91 $x83)))
 (let (($x101 (or $x86 $x100)))
 (not $x101)))))))))))))))))))))))))))
(check-sat)
